9
0, 671, 727, 680, 698, 801, 952, 153, 593
671, 0, 353, 399, 561, 885, 912, 703, 579
727, 353, 0, 81, 242, 580, 571, 681, 316
680, 399, 81, 0, 168, 506, 512, 620, 234
698, 561, 242, 168, 0, 338, 353, 605, 123
801, 885, 580, 506, 338, 0, 190, 662, 309
952, 912, 571, 512, 353, 190, 0, 823, 389
153, 703, 681, 620, 605, 662, 823, 0, 489
593, 579, 316, 234, 123, 309, 389, 489, 0
